p cnf 13 49
5 -10 13 0
2 4 9 0
-8 -9 12 0
-2 -6 8 0
2 -3 -13 0
1 -7 12 0
8 -10 11 0
-10 -11 -12 0
-4 -5 9 0
-1 -2 -12 0
2 5 -6 0
-5 6 -11 0
3 -5 -12 0
-1 11 12 0
1 -3 6 0
3 8 11 0
-4 -5 10 0
-2 7 9 0
-1 2 -5 0
-1 3 -11 0
3 7 -8 0
1 -3 -9 0
-3 -9 -11 0
3 4 5 0
1 -2 -8 0
7 -8 10 0
1 -2 12 0
-2 7 -11 0
-3 4 6 0
2 5 11 0
1 7 -13 0
-8 9 -13 0
-1 -5 6 0
3 -6 -10 0
-1 5 10 0
-2 5 -6 0
10 -11 -13 0
2 -4 11 0
-5 -10 13 0
-9 10 -13 0
-2 -5 13 0
-3 -7 -11 0
-2 -6 13 0
7 -8 -11 0
3 -7 -11 0
4 8 11 0
6 -8 -11 0
-1 -11 -12 0
3 -4 -6 0
